# HF/cc-pvdz mtp=camm

&MOL1
HAEFIK

0 1
H  0.000 0.000 0.000
F  0.000 0.000 0.917

&END
