# CIS/6-31G* EINT=esp,camm  mpoints=2500

&MOL1
ETHYLENE 1

0 1
C  -0.000096   -0.702538    1.500007
H  -0.916464   -1.251185    1.602551
C  -0.000096    0.702548    1.499997
H   0.917122   -1.250731    1.600044
H   0.917129    1.250650    1.599215
H  -0.916633    1.251203    1.602685

&MOL
ETHYLENE 2 

0 1
C  -0.000096   -0.702538   -1.500007
H  -0.916464   -1.251185   -1.602551
C  -0.000096    0.702548   -1.499997
H   0.917122   -1.250731   -1.600044
H   0.917129    1.250650   -1.599215
H  -0.916633    1.251203   -1.602685

&END

