# mp2/sto3g EINT=esp mpoints=10 pot=camm svd=true 

&MOL
HF 1

0 1
F      0.000000    0.000000    0.0000
H      0.000000    0.000000    0.917

&MOL
HF 2

0 1
F      0.000000    0.0000000  -2.9000
H      0.000000    0.0000000  -1.917

&END
