# HF/6-31G eint=esp mpoints=10000


&MOL
METANOL
0 1
O         -0.43268        1.92920       -0.16300
H          0.52220        2.15843       -0.09144
C         -1.13800        3.15073       -0.04105
H         -2.21074        2.94789       -0.06514
H         -0.87394        3.80831       -0.87297
H         -0.88115        3.62713        0.90855

&MOL
AMONIAK
N          2.23461        2.68419        0.23168
H          2.91194        2.27574       -0.41726
H          2.50518        3.66685        0.30944
H          2.46411        2.27389        1.14050

&END
